(set-info :source |printed by MathSAT|)
(declare-fun |.x{1}| () Int)
(declare-fun |.x{557}| () Int)
(declare-fun |.x{2}| () (Array Int (Array Int Int)))
(declare-fun |.x{558}| () (Array Int (Array Int Int)))
(declare-fun |.x{3}| () (Array Int (Array Int Int)))
(declare-fun |.x{559}| () (Array Int (Array Int Int)))
(declare-fun |.x{39}| () (Array Int Int))
(declare-fun |.x{560}| () (Array Int Int))
(declare-fun |.x{5}| () (Array Int Int))
(declare-fun |.x{561}| () (Array Int Int))
(declare-fun |.x{6}| () (Array Int (Array Int Int)))
(declare-fun |.x{562}| () (Array Int (Array Int Int)))
(declare-fun |.x{7}| () (Array Int (Array Int Int)))
(declare-fun |.x{563}| () (Array Int (Array Int Int)))
(declare-fun |.x{43}| () Int)
(declare-fun |.x{564}| () Int)
(declare-fun |.x{9}| () Int)
(declare-fun |.x{565}| () Int)
(declare-fun |.x{10}| () (Array Int Int))
(declare-fun |.x{566}| () (Array Int Int))
(declare-fun |.x{11}| () (Array Int Int))
(declare-fun |.x{567}| () (Array Int Int))
(declare-fun |.x{47}| () Int)
(declare-fun |.x{568}| () Int)
(declare-fun |.x{13}| () Int)
(declare-fun |.x{569}| () Int)
(declare-fun |.x{14}| () (Array Int (Array Int Int)))
(declare-fun |.x{570}| () (Array Int (Array Int Int)))
(declare-fun |.x{15}| () (Array Int (Array Int Int)))
(declare-fun |.x{571}| () (Array Int (Array Int Int)))
(declare-fun |.x{16}| () Int)
(declare-fun |.x{572}| () Int)
(declare-fun |.x{17}| () Int)
(declare-fun |.x{573}| () Int)
(declare-fun |.x{18}| () Int)
(declare-fun |.x{574}| () Int)
(declare-fun |.x{19}| () Int)
(declare-fun |.x{575}| () Int)
(declare-fun |.x{20}| () Int)
(declare-fun |.x{576}| () Int)
(declare-fun |.x{21}| () Int)
(declare-fun |.x{577}| () Int)
(declare-fun |.x{22}| () Int)
(declare-fun |.x{578}| () Int)
(declare-fun |.x{23}| () Int)
(declare-fun |.x{579}| () Int)
(declare-fun |.x{24}| () Int)
(declare-fun |.x{580}| () Int)
(declare-fun |.x{25}| () Int)
(declare-fun |.x{581}| () Int)
(declare-fun |.x{26}| () Int)
(declare-fun |.x{582}| () Int)
(declare-fun |.x{27}| () Int)
(declare-fun |.x{583}| () Int)
(declare-fun |.x{28}| () Int)
(declare-fun |.x{584}| () Int)
(declare-fun |.x{29}| () Int)
(declare-fun |.x{585}| () Int)
(declare-fun |.x{30}| () Int)
(declare-fun |.x{586}| () Int)
(declare-fun |.x{31}| () Int)
(declare-fun |.x{587}| () Int)
(declare-fun |.x{32}| () Int)
(declare-fun |.x{588}| () Int)
(declare-fun |.x{33}| () Int)
(declare-fun |.x{589}| () Int)
(declare-fun |.x{34}| () Int)
(declare-fun |.x{590}| () Int)
(declare-fun |.x{35}| () Bool)
(declare-fun |.x{521}| () Bool)
(declare-fun |.loc{3}| () Bool)
(declare-fun |.loc{5}| () Bool)
(declare-fun |.loc{4}| () Bool)
(declare-fun |.loc{6}| () Bool)
(declare-fun |.x{141}| () (Array Int Int))
(define-fun .def_80 () Bool (! |.loc{4}| :next |.loc{6}|))
(define-fun .def_294 () Bool (not .def_80))
(define-fun .def_78 () Bool (! |.loc{3}| :next |.loc{5}|))
(define-fun .def_97 () Bool (not .def_78))
(define-fun .def_327 () Bool (and .def_97 .def_294))
(define-fun .def_24 () Int (! |.x{9}| :next |.x{565}|))
(define-fun .def_22 () Int (! |.x{43}| :next |.x{564}|))
(define-fun .def_319 () Bool (= .def_22 .def_24))
(define-fun .def_36 () (Array Int (Array Int Int)) (! |.x{15}| :next |.x{571}|))
(define-fun .def_34 () (Array Int (Array Int Int)) (! |.x{14}| :next |.x{570}|))
(define-fun .def_318 () Bool (= .def_34 .def_36))
(define-fun .def_320 () Bool (and .def_318 .def_319))
(define-fun .def_76 () Bool (! |.x{35}| :next |.x{521}|))
(define-fun .def_317 () Bool (not .def_76))
(define-fun .def_321 () Bool (and .def_317 .def_320))
(define-fun .def_32 () Int (! |.x{13}| :next |.x{569}|))
(define-fun .def_30 () Int (! |.x{47}| :next |.x{568}|))
(define-fun .def_316 () Bool (= .def_30 .def_32))
(define-fun .def_322 () Bool (and .def_316 .def_321))
(define-fun .def_12 () (Array Int (Array Int Int)) (! |.x{3}| :next |.x{559}|))
(define-fun .def_10 () (Array Int (Array Int Int)) (! |.x{2}| :next |.x{558}|))
(define-fun .def_315 () Bool (= .def_10 .def_12))
(define-fun .def_323 () Bool (and .def_315 .def_322))
(define-fun .def_28 () (Array Int Int) (! |.x{11}| :next |.x{567}|))
(define-fun .def_26 () (Array Int Int) (! |.x{10}| :next |.x{566}|))
(define-fun .def_314 () Bool (= .def_26 .def_28))
(define-fun .def_324 () Bool (and .def_314 .def_323))
(define-fun .def_20 () (Array Int (Array Int Int)) (! |.x{7}| :next |.x{563}|))
(define-fun .def_18 () (Array Int (Array Int Int)) (! |.x{6}| :next |.x{562}|))
(define-fun .def_313 () Bool (= .def_18 .def_20))
(define-fun .def_325 () Bool (and .def_313 .def_324))
(define-fun .def_16 () (Array Int Int) (! |.x{5}| :next |.x{561}|))
(define-fun .def_14 () (Array Int Int) (! |.x{39}| :next |.x{560}|))
(define-fun .def_312 () Bool (= .def_14 .def_16))
(define-fun .def_326 () Bool (and .def_312 .def_325))
(define-fun .def_328 () Bool (! (and .def_326 .def_327) :init true))
(define-fun .def_309 () Bool (= .def_16 |.x{561}|))
(define-fun .def_307 () Bool (= .def_12 |.x{559}|))
(define-fun .def_8 () Int (! |.x{1}| :next |.x{557}|))
(define-fun .def_305 () Bool (= .def_8 |.x{557}|))
(define-fun .def_303 () Bool (= .def_36 |.x{571}|))
(define-fun .def_301 () Bool (= .def_32 |.x{569}|))
(define-fun .def_299 () Bool (= .def_28 |.x{567}|))
(define-fun .def_297 () Bool (= .def_24 |.x{565}|))
(define-fun .def_295 () Bool (= .def_20 |.x{563}|))
(define-fun .def_296 () Bool (and .def_294 .def_295))
(define-fun .def_298 () Bool (and .def_296 .def_297))
(define-fun .def_300 () Bool (and .def_298 .def_299))
(define-fun .def_302 () Bool (and .def_300 .def_301))
(define-fun .def_304 () Bool (and .def_302 .def_303))
(define-fun .def_306 () Bool (and .def_304 .def_305))
(define-fun .def_308 () Bool (and .def_306 .def_307))
(define-fun .def_310 () Bool (and .def_308 .def_309))
(define-fun .def_101 () Bool (= |.x{589}| 4))
(define-fun .def_286 () Bool (not .def_101))
(define-fun .def_287 () Bool (or .def_76 .def_286))
(define-fun .def_215 () (Array Int Int) (store |.x{141}| |.x{573}| 1))
(define-fun .def_216 () (Array Int Int) (store .def_215 |.x{583}| 1))
(define-fun .def_231 () Int (select .def_216 |.x{576}|))
(define-fun .def_232 () Bool (= .def_231 0))
(define-fun .def_227 () Bool (= |.x{576}| 0))
(define-fun .def_228 () Bool (not .def_227))
(define-fun .def_224 () Int (select .def_215 |.x{583}|))
(define-fun .def_225 () Bool (= .def_224 0))
(define-fun .def_221 () Bool (= |.x{574}| 0))
(define-fun .def_217 () (Array Int Int) (store .def_216 |.x{576}| 1))
(define-fun .def_218 () Bool (= |.x{560}| .def_217))
(define-fun .def_104 () Int (+ |.x{579}| 4))
(define-fun .def_209 () (Array Int Int) (select |.x{570}| |.x{590}|))
(define-fun .def_210 () Int (select .def_209 .def_104))
(define-fun .def_211 () Bool (= |.x{575}| .def_210))
(define-fun .def_205 () Int (select |.x{141}| |.x{573}|))
(define-fun .def_206 () Bool (= .def_205 0))
(define-fun .def_202 () Bool (= |.x{583}| 0))
(define-fun .def_203 () Bool (not .def_202))
(define-fun .def_175 () Int (+ |.x{575}| 4))
(define-fun .def_197 () (Array Int Int) (select |.x{570}| |.x{588}|))
(define-fun .def_198 () Int (select .def_197 .def_175))
(define-fun .def_199 () Bool (= |.x{584}| .def_198))
(define-fun .def_195 () Bool (= |.x{581}| 0))
(define-fun .def_193 () Bool (= |.x{576}| |.x{590}|))
(define-fun .def_189 () (Array Int Int) (select |.x{562}| |.x{585}|))
(define-fun .def_190 () Int (select .def_189 |.x{584}|))
(define-fun .def_191 () Bool (= |.x{589}| .def_190))
(define-fun .def_185 () Bool (= |.x{573}| 0))
(define-fun .def_186 () Bool (not .def_185))
(define-fun .def_181 () (Array Int Int) (select |.x{558}| |.x{590}|))
(define-fun .def_182 () Int (select .def_181 .def_104))
(define-fun .def_183 () Bool (= |.x{588}| .def_182))
(define-fun .def_176 () (Array Int Int) (select |.x{558}| |.x{588}|))
(define-fun .def_177 () Int (select .def_176 .def_175))
(define-fun .def_178 () Bool (= |.x{585}| .def_177))
(define-fun .def_172 () Bool (= |.x{572}| 0))
(define-fun .def_170 () Bool (= |.x{579}| |.x{581}|))
(define-fun .def_166 () Bool (<= |.x{557}| |.x{583}|))
(define-fun .def_167 () Bool (not .def_166))
(define-fun .def_164 () Bool (<= |.x{557}| |.x{576}|))
(define-fun .def_165 () Bool (not .def_164))
(define-fun .def_168 () Bool (and .def_165 .def_167))
(define-fun .def_105 () (Array Int Int) (select .def_34 |.x{590}|))
(define-fun .def_106 () Int (select .def_105 .def_104))
(define-fun .def_111 () Int (+ .def_106 4))
(define-fun .def_108 () (Array Int Int) (select .def_10 |.x{590}|))
(define-fun .def_109 () Int (select .def_108 .def_104))
(define-fun .def_110 () (Array Int Int) (select .def_34 .def_109))
(define-fun .def_112 () Int (select .def_110 .def_111))
(define-fun .def_113 () (Array Int Int) (select .def_10 .def_109))
(define-fun .def_114 () Int (select .def_113 .def_111))
(define-fun .def_158 () (Array Int Int) (select |.x{558}| .def_114))
(define-fun .def_159 () Int (select .def_158 .def_112))
(define-fun .def_160 () (Array Int Int) (select .def_10 .def_114))
(define-fun .def_161 () (Array Int Int) (store .def_160 .def_112 .def_159))
(define-fun .def_162 () (Array Int (Array Int Int)) (store .def_10 .def_114 .def_161))
(define-fun .def_163 () Bool (= |.x{558}| .def_162))
(define-fun .def_169 () Bool (and .def_163 .def_168))
(define-fun .def_171 () Bool (and .def_169 .def_170))
(define-fun .def_173 () Bool (and .def_171 .def_172))
(define-fun .def_125 () Int (+ |.x{581}| 4))
(define-fun .def_155 () (Array Int Int) (select .def_10 |.x{576}|))
(define-fun .def_156 () Int (select .def_155 .def_125))
(define-fun .def_157 () Bool (= |.x{583}| .def_156))
(define-fun .def_174 () Bool (and .def_157 .def_173))
(define-fun .def_179 () Bool (and .def_174 .def_178))
(define-fun .def_153 () Bool (<= |.x{557}| |.x{573}|))
(define-fun .def_154 () Bool (not .def_153))
(define-fun .def_180 () Bool (and .def_154 .def_179))
(define-fun .def_184 () Bool (and .def_180 .def_183))
(define-fun .def_187 () Bool (and .def_184 .def_186))
(define-fun .def_150 () (Array Int Int) (select .def_18 |.x{576}|))
(define-fun .def_151 () Int (select .def_150 |.x{581}|))
(define-fun .def_152 () Bool (= .def_151 1))
(define-fun .def_188 () Bool (and .def_152 .def_187))
(define-fun .def_192 () Bool (and .def_188 .def_191))
(define-fun .def_194 () Bool (and .def_192 .def_193))
(define-fun .def_196 () Bool (and .def_194 .def_195))
(define-fun .def_200 () Bool (and .def_196 .def_199))
(define-fun .def_138 () Int (+ |.x{574}| 4))
(define-fun .def_146 () (Array Int Int) (select .def_34 |.x{583}|))
(define-fun .def_147 () Int (select .def_146 .def_138))
(define-fun .def_148 () Bool (= |.x{572}| .def_147))
(define-fun .def_201 () Bool (and .def_148 .def_200))
(define-fun .def_204 () Bool (and .def_201 .def_203))
(define-fun .def_207 () Bool (and .def_204 .def_206))
(define-fun .def_143 () (Array Int Int) (select .def_18 |.x{573}|))
(define-fun .def_144 () Int (select .def_143 |.x{572}|))
(define-fun .def_145 () Bool (= .def_144 3))
(define-fun .def_208 () Bool (and .def_145 .def_207))
(define-fun .def_212 () Bool (and .def_208 .def_211))
(define-fun .def_139 () (Array Int Int) (select .def_10 |.x{583}|))
(define-fun .def_140 () Int (select .def_139 .def_138))
(define-fun .def_141 () Bool (= |.x{573}| .def_140))
(define-fun .def_213 () Bool (and .def_141 .def_212))
(define-fun .def_134 () (Array Int Int) (store .def_26 |.x{573}| 4))
(define-fun .def_135 () (Array Int Int) (store .def_134 |.x{583}| 8))
(define-fun .def_136 () (Array Int Int) (store .def_135 |.x{576}| 8))
(define-fun .def_137 () Bool (= |.x{566}| .def_136))
(define-fun .def_214 () Bool (and .def_137 .def_213))
(define-fun .def_219 () Bool (and .def_214 .def_218))
(define-fun .def_129 () (Array Int Int) (select .def_18 .def_114))
(define-fun .def_130 () (Array Int Int) (store .def_129 .def_112 4))
(define-fun .def_131 () (Array Int (Array Int Int)) (store .def_18 .def_114 .def_130))
(define-fun .def_132 () Bool (= |.x{562}| .def_131))
(define-fun .def_220 () Bool (and .def_132 .def_219))
(define-fun .def_222 () Bool (and .def_220 .def_221))
(define-fun .def_126 () (Array Int Int) (select .def_34 |.x{576}|))
(define-fun .def_127 () Int (select .def_126 .def_125))
(define-fun .def_128 () Bool (= |.x{574}| .def_127))
(define-fun .def_223 () Bool (and .def_128 .def_222))
(define-fun .def_226 () Bool (and .def_223 .def_225))
(define-fun .def_229 () Bool (and .def_226 .def_228))
(define-fun .def_122 () (Array Int Int) (select .def_18 |.x{583}|))
(define-fun .def_123 () Int (select .def_122 |.x{574}|))
(define-fun .def_124 () Bool (= .def_123 2))
(define-fun .def_230 () Bool (and .def_124 .def_229))
(define-fun .def_233 () Bool (and .def_230 .def_232))
(define-fun .def_115 () (Array Int Int) (select |.x{570}| .def_114))
(define-fun .def_116 () Int (select .def_115 .def_112))
(define-fun .def_117 () (Array Int Int) (select .def_34 .def_114))
(define-fun .def_118 () (Array Int Int) (store .def_117 .def_112 .def_116))
(define-fun .def_119 () (Array Int (Array Int Int)) (store .def_34 .def_114 .def_118))
(define-fun .def_120 () Bool (= |.x{570}| .def_119))
(define-fun .def_234 () Bool (and .def_120 .def_233))
(define-fun .def_284 () Bool (or .def_76 .def_234))
(define-fun .def_48 () Int (! |.x{21}| :next |.x{577}|))
(define-fun .def_93 () Bool (= .def_48 |.x{577}|))
(define-fun .def_282 () Bool (and .def_93 .def_97))
(define-fun .def_283 () Bool (and |.x{521}| .def_282))
(define-fun .def_285 () Bool (and .def_283 .def_284))
(define-fun .def_288 () Bool (and .def_285 .def_287))
(define-fun .def_88 () (Array Int Int) (store .def_14 0 0))
(define-fun .def_89 () Bool (= |.x{141}| .def_88))
(define-fun .def_85 () Bool (= |.x{564}| 0))
(define-fun .def_84 () Bool (= |.x{568}| 0))
(define-fun .def_86 () Bool (and .def_84 .def_85))
(define-fun .def_90 () Bool (and .def_86 .def_89))
(define-fun .def_91 () Bool (or .def_76 .def_90))
(define-fun .def_289 () Bool (and .def_91 .def_288))
(define-fun .def_46 () Int (! |.x{20}| :next |.x{576}|))
(define-fun .def_60 () Int (! |.x{27}| :next |.x{583}|))
(define-fun .def_40 () Int (! |.x{17}| :next |.x{573}|))
(define-fun .def_275 () (Array Int Int) (store .def_14 .def_40 0))
(define-fun .def_276 () (Array Int Int) (store .def_275 .def_60 0))
(define-fun .def_277 () (Array Int Int) (store .def_276 .def_46 0))
(define-fun .def_278 () Bool (= |.x{560}| .def_277))
(define-fun .def_274 () Bool (= |.x{580}| 0))
(define-fun .def_279 () Bool (and .def_274 .def_278))
(define-fun .def_280 () Bool (or .def_76 .def_279))
(define-fun .def_272 () Bool (= .def_10 |.x{558}|))
(define-fun .def_269 () Bool (= .def_18 |.x{562}|))
(define-fun .def_267 () Bool (= .def_22 |.x{564}|))
(define-fun .def_265 () Bool (= .def_26 |.x{566}|))
(define-fun .def_263 () Bool (= .def_30 |.x{568}|))
(define-fun .def_261 () Bool (= .def_34 |.x{570}|))
(define-fun .def_50 () Int (! |.x{22}| :next |.x{578}|))
(define-fun .def_259 () Bool (= .def_50 |.x{578}|))
(define-fun .def_52 () Int (! |.x{23}| :next |.x{579}|))
(define-fun .def_257 () Bool (= .def_52 |.x{579}|))
(define-fun .def_58 () Int (! |.x{26}| :next |.x{582}|))
(define-fun .def_255 () Bool (= .def_58 |.x{582}|))
(define-fun .def_66 () Int (! |.x{30}| :next |.x{586}|))
(define-fun .def_253 () Bool (= .def_66 |.x{586}|))
(define-fun .def_68 () Int (! |.x{31}| :next |.x{587}|))
(define-fun .def_251 () Bool (= .def_68 |.x{587}|))
(define-fun .def_74 () Int (! |.x{34}| :next |.x{590}|))
(define-fun .def_249 () Bool (= .def_74 |.x{590}|))
(define-fun .def_246 () Bool (= |.x{577}| |.x{580}|))
(define-fun .def_247 () Bool (or |.x{521}| .def_246))
(define-fun .def_82 () Bool (= .def_76 |.x{521}|))
(define-fun .def_248 () Bool (and .def_82 .def_247))
(define-fun .def_250 () Bool (and .def_248 .def_249))
(define-fun .def_252 () Bool (and .def_250 .def_251))
(define-fun .def_254 () Bool (and .def_252 .def_253))
(define-fun .def_256 () Bool (and .def_254 .def_255))
(define-fun .def_258 () Bool (and .def_256 .def_257))
(define-fun .def_260 () Bool (and .def_258 .def_259))
(define-fun .def_262 () Bool (and .def_260 .def_261))
(define-fun .def_264 () Bool (and .def_262 .def_263))
(define-fun .def_266 () Bool (and .def_264 .def_265))
(define-fun .def_268 () Bool (and .def_266 .def_267))
(define-fun .def_270 () Bool (and .def_268 .def_269))
(define-fun .def_271 () Bool (and .def_78 .def_270))
(define-fun .def_273 () Bool (and .def_271 .def_272))
(define-fun .def_281 () Bool (and .def_273 .def_280))
(define-fun .def_290 () Bool (or .def_281 .def_289))
(define-fun .def_243 () Bool (not |.loc{5}|))
(define-fun .def_244 () Bool (and |.loc{6}| .def_243))
(define-fun .def_245 () Bool (and .def_243 .def_244))
(define-fun .def_291 () Bool (and .def_245 .def_290))
(define-fun .def_237 () Bool (and .def_76 |.x{521}|))
(define-fun .def_238 () Bool (and .def_91 .def_237))
(define-fun .def_239 () Bool (and .def_93 .def_238))
(define-fun .def_95 () Bool (not |.loc{6}|))
(define-fun .def_240 () Bool (and .def_95 .def_239))
(define-fun .def_241 () Bool (and .def_97 .def_240))
(define-fun .def_242 () Bool (and |.loc{5}| .def_241))
(define-fun .def_292 () Bool (or .def_242 .def_291))
(define-fun .def_235 () Bool (or |.x{521}| .def_234))
(define-fun .def_102 () Bool (or |.x{521}| .def_101))
(define-fun .def_92 () Bool (and .def_82 .def_91))
(define-fun .def_94 () Bool (and .def_92 .def_93))
(define-fun .def_96 () Bool (and .def_94 .def_95))
(define-fun .def_98 () Bool (and .def_96 .def_97))
(define-fun .def_99 () Bool (and |.loc{5}| .def_98))
(define-fun .def_103 () Bool (and .def_99 .def_102))
(define-fun .def_236 () Bool (and .def_103 .def_235))
(define-fun .def_293 () Bool (or .def_236 .def_292))
(define-fun .def_311 () Bool (! (and .def_293 .def_310) :trans true))
(define-fun .def_38 () Int (! |.x{16}| :next |.x{572}|))
(define-fun .def_42 () Int (! |.x{18}| :next |.x{574}|))
(define-fun .def_44 () Int (! |.x{19}| :next |.x{575}|))
(define-fun .def_54 () Int (! |.x{24}| :next |.x{580}|))
(define-fun .def_56 () Int (! |.x{25}| :next |.x{581}|))
(define-fun .def_62 () Int (! |.x{28}| :next |.x{584}|))
(define-fun .def_64 () Int (! |.x{29}| :next |.x{585}|))
(define-fun .def_70 () Int (! |.x{32}| :next |.x{588}|))
(define-fun .def_72 () Int (! |.x{33}| :next |.x{589}|))
(define-fun .def_329 () Bool (and .def_80 .def_97))
(define-fun .def_330 () Bool (and .def_76 .def_329))
(define-fun .def_331 () Bool (! (not .def_330) :invar-property 0))
(assert true)
